\Problem name: compact

Minimize
OBJROW: C
Subject To
ord(0,1):  - x(0,1) + x(0,4) >= 4
ord(0,2):  x(0,2) - x(0,4) >= 10
ord(0,3):  - x(0,2) + x(0,3) >= 4
ord(0,4):  x(0,0) - x(0,3) >= 1
ord(1,1):  - x(1,1) + x(1,4) >= 2
ord(1,2):  x(1,0) - x(1,4) >= 8
ord(1,3):  - x(1,0) + x(1,3) >= 2
ord(1,4):  x(1,2) - x(1,3) >= 10
ord(2,1):  x(2,0) - x(2,3) >= 4
ord(2,2):  - x(2,0) + x(2,1) >= 3
ord(2,3):  - x(2,1) + x(2,4) >= 2
ord(2,4):  x(2,2) - x(2,4) >= 2
ord(3,1):  x(3,0) - x(3,2) >= 1
ord(3,2):  - x(3,0) + x(3,1) >= 6
ord(3,3):  - x(3,1) + x(3,3) >= 4
ord(3,4):  - x(3,3) + x(3,4) >= 1
triangle2(0,1,0):  y(0,1,0) + y(1,0,0) = 1
triangle2(0,1,1):  y(0,1,1) + y(1,0,1) = 1
triangle2(0,1,2):  y(0,1,2) + y(1,0,2) = 1
triangle2(0,1,3):  y(0,1,3) + y(1,0,3) = 1
triangle2(0,1,4):  y(0,1,4) + y(1,0,4) = 1
triangle2(0,2,0):  y(0,2,0) + y(2,0,0) = 1
triangle2(0,2,1):  y(0,2,1) + y(2,0,1) = 1
triangle2(0,2,2):  y(0,2,2) + y(2,0,2) = 1
triangle2(0,2,3):  y(0,2,3) + y(2,0,3) = 1
triangle2(0,2,4):  y(0,2,4) + y(2,0,4) = 1
triangle2(0,3,0):  y(0,3,0) + y(3,0,0) = 1
triangle2(0,3,1):  y(0,3,1) + y(3,0,1) = 1
triangle2(0,3,2):  y(0,3,2) + y(3,0,2) = 1
triangle2(0,3,3):  y(0,3,3) + y(3,0,3) = 1
triangle2(0,3,4):  y(0,3,4) + y(3,0,4) = 1
triangle2(1,2,0):  y(1,2,0) + y(2,1,0) = 1
triangle2(1,2,1):  y(1,2,1) + y(2,1,1) = 1
triangle2(1,2,2):  y(1,2,2) + y(2,1,2) = 1
triangle2(1,2,3):  y(1,2,3) + y(2,1,3) = 1
triangle2(1,2,4):  y(1,2,4) + y(2,1,4) = 1
triangle2(1,3,0):  y(1,3,0) + y(3,1,0) = 1
triangle2(1,3,1):  y(1,3,1) + y(3,1,1) = 1
triangle2(1,3,2):  y(1,3,2) + y(3,1,2) = 1
triangle2(1,3,3):  y(1,3,3) + y(3,1,3) = 1
triangle2(1,3,4):  y(1,3,4) + y(3,1,4) = 1
triangle2(2,3,0):  y(2,3,0) + y(3,2,0) = 1
triangle2(2,3,1):  y(2,3,1) + y(3,2,1) = 1
triangle2(2,3,2):  y(2,3,2) + y(3,2,2) = 1
triangle2(2,3,3):  y(2,3,3) + y(3,2,3) = 1
triangle2(2,3,4):  y(2,3,4) + y(3,2,4) = 1
MCLinV(0,1,0):  x(0,0) - v(0,1,0) - x(1,0) = 2
MCLinV(1,0,0):  - x(0,0) - v(1,0,0) + x(1,0) = 6
MCLin1(0,1,0):  u(0,1,0) >= -0
MCLin2(0,1,0):  -58 y(1,0,0) - u(0,1,0) <= -0
MCLin3(0,1,0):  76 y(1,0,0) + v(0,1,0) - u(0,1,0) <= 76
MCLin4(0,1,0):  76 y(1,0,0) - u(0,1,0) >= -0
MCLin5(0,1,0):  -58 y(1,0,0) + v(0,1,0) - u(0,1,0) >= -58
MCLin6(1,0,0):  u(1,0,0) >= -0
MCLin7(1,0,0):  -84 y(0,1,0) - u(1,0,0) <= -0
MCLin8(1,0,0):  50 y(0,1,0) + v(1,0,0) - u(1,0,0) <= 50
MCLin9(1,0,0):  50 y(0,1,0) - u(1,0,0) >= -0
MCLin10(1,0,0):  -84 y(0,1,0) + v(1,0,0) - u(1,0,0) >= -84
MCLinV(0,1,1):  x(0,1) - v(0,1,1) - x(1,1) = 2
MCLinV(1,0,1):  - x(0,1) - v(1,0,1) + x(1,1) = 4
MCLin1(0,1,1):  u(0,1,1) >= -0
MCLin2(0,1,1):  -67 y(1,0,1) - u(0,1,1) <= -0
MCLin3(0,1,1):  67 y(1,0,1) + v(0,1,1) - u(0,1,1) <= 67
MCLin4(0,1,1):  67 y(1,0,1) - u(0,1,1) >= -0
MCLin5(0,1,1):  -67 y(1,0,1) + v(0,1,1) - u(0,1,1) >= -67
MCLin6(1,0,1):  u(1,0,1) >= -0
MCLin7(1,0,1):  -73 y(0,1,1) - u(1,0,1) <= -0
MCLin8(1,0,1):  61 y(0,1,1) + v(1,0,1) - u(1,0,1) <= 61
MCLin9(1,0,1):  61 y(0,1,1) - u(1,0,1) >= -0
MCLin10(1,0,1):  -73 y(0,1,1) + v(1,0,1) - u(1,0,1) >= -73
MCLinV(0,1,2):  x(0,2) - v(0,1,2) - x(1,2) = 7
MCLinV(1,0,2):  - x(0,2) - v(1,0,2) + x(1,2) = 4
MCLin1(0,1,2):  u(0,1,2) >= -0
MCLin2(0,1,2):  -80 y(1,0,2) - u(0,1,2) <= -0
MCLin3(0,1,2):  54 y(1,0,2) + v(0,1,2) - u(0,1,2) <= 54
MCLin4(0,1,2):  54 y(1,0,2) - u(0,1,2) >= -0
MCLin5(0,1,2):  -80 y(1,0,2) + v(0,1,2) - u(0,1,2) >= -80
MCLin6(1,0,2):  u(1,0,2) >= -0
MCLin7(1,0,2):  -65 y(0,1,2) - u(1,0,2) <= -0
MCLin8(1,0,2):  69 y(0,1,2) + v(1,0,2) - u(1,0,2) <= 69
MCLin9(1,0,2):  69 y(0,1,2) - u(1,0,2) >= -0
MCLin10(1,0,2):  -65 y(0,1,2) + v(1,0,2) - u(1,0,2) >= -65
MCLinV(0,1,3):  x(0,3) - v(0,1,3) - x(1,3) = 10
MCLinV(1,0,3):  - x(0,3) - v(1,0,3) + x(1,3) = 1
MCLin1(0,1,3):  u(0,1,3) >= -0
MCLin2(0,1,3):  -69 y(1,0,3) - u(0,1,3) <= -0
MCLin3(0,1,3):  65 y(1,0,3) + v(0,1,3) - u(0,1,3) <= 65
MCLin4(0,1,3):  65 y(1,0,3) - u(0,1,3) >= -0
MCLin5(0,1,3):  -69 y(1,0,3) + v(0,1,3) - u(0,1,3) >= -69
MCLin6(1,0,3):  u(1,0,3) >= -0
MCLin7(1,0,3):  -76 y(0,1,3) - u(1,0,3) <= -0
MCLin8(1,0,3):  58 y(0,1,3) + v(1,0,3) - u(1,0,3) <= 58
MCLin9(1,0,3):  58 y(0,1,3) - u(1,0,3) >= -0
MCLin10(1,0,3):  -76 y(0,1,3) + v(1,0,3) - u(1,0,3) >= -76
MCLinV(0,1,4):  x(0,4) - v(0,1,4) - x(1,4) = 8
MCLinV(1,0,4):  - x(0,4) - v(1,0,4) + x(1,4) = 10
MCLin1(0,1,4):  u(0,1,4) >= -0
MCLin2(0,1,4):  -71 y(1,0,4) - u(0,1,4) <= -0
MCLin3(0,1,4):  63 y(1,0,4) + v(0,1,4) - u(0,1,4) <= 63
MCLin4(0,1,4):  63 y(1,0,4) - u(0,1,4) >= -0
MCLin5(0,1,4):  -71 y(1,0,4) + v(0,1,4) - u(0,1,4) >= -71
MCLin6(1,0,4):  u(1,0,4) >= -0
MCLin7(1,0,4):  -81 y(0,1,4) - u(1,0,4) <= -0
MCLin8(1,0,4):  53 y(0,1,4) + v(1,0,4) - u(1,0,4) <= 53
MCLin9(1,0,4):  53 y(0,1,4) - u(1,0,4) >= -0
MCLin10(1,0,4):  -81 y(0,1,4) + v(1,0,4) - u(1,0,4) >= -81
MCLinV(0,2,0):  x(0,0) - v(0,2,0) - x(2,0) = 3
MCLinV(2,0,0):  - x(0,0) - v(2,0,0) + x(2,0) = 6
MCLin1(0,2,0):  u(0,2,0) >= -0
MCLin2(0,2,0):  -63 y(2,0,0) - u(0,2,0) <= -0
MCLin3(0,2,0):  81 y(2,0,0) + v(0,2,0) - u(0,2,0) <= 81
MCLin4(0,2,0):  81 y(2,0,0) - u(0,2,0) >= -0
MCLin5(0,2,0):  -63 y(2,0,0) + v(0,2,0) - u(0,2,0) >= -63
MCLin6(2,0,0):  u(2,0,0) >= -0
MCLin7(2,0,0):  -90 y(0,2,0) - u(2,0,0) <= -0
MCLin8(2,0,0):  54 y(0,2,0) + v(2,0,0) - u(2,0,0) <= 54
MCLin9(2,0,0):  54 y(0,2,0) - u(2,0,0) >= -0
MCLin10(2,0,0):  -90 y(0,2,0) + v(2,0,0) - u(2,0,0) >= -90
MCLinV(0,2,1):  x(0,1) - v(0,2,1) - x(2,1) = 2
MCLinV(2,0,1):  - x(0,1) - v(2,0,1) + x(2,1) = 4
MCLin1(0,2,1):  u(0,2,1) >= -0
MCLin2(0,2,1):  -84 y(2,0,1) - u(0,2,1) <= -0
MCLin3(0,2,1):  60 y(2,0,1) + v(0,2,1) - u(0,2,1) <= 60
MCLin4(0,2,1):  60 y(2,0,1) - u(0,2,1) >= -0
MCLin5(0,2,1):  -84 y(2,0,1) + v(0,2,1) - u(0,2,1) >= -84
MCLin6(2,0,1):  u(2,0,1) >= -0
MCLin7(2,0,1):  -66 y(0,2,1) - u(2,0,1) <= -0
MCLin8(2,0,1):  78 y(0,2,1) + v(2,0,1) - u(2,0,1) <= 78
MCLin9(2,0,1):  78 y(0,2,1) - u(2,0,1) >= -0
MCLin10(2,0,1):  -66 y(0,2,1) + v(2,0,1) - u(2,0,1) >= -66
MCLinV(0,2,2):  x(0,2) - v(0,2,2) - x(2,2) = 8
MCLinV(2,0,2):  - x(0,2) - v(2,0,2) + x(2,2) = 4
MCLin1(0,2,2):  u(0,2,2) >= -0
MCLin2(0,2,2):  -80 y(2,0,2) - u(0,2,2) <= -0
MCLin3(0,2,2):  64 y(2,0,2) + v(0,2,2) - u(0,2,2) <= 64
MCLin4(0,2,2):  64 y(2,0,2) - u(0,2,2) >= -0
MCLin5(0,2,2):  -80 y(2,0,2) + v(0,2,2) - u(0,2,2) >= -80
MCLin6(2,0,2):  u(2,0,2) >= -0
MCLin7(2,0,2):  -76 y(0,2,2) - u(2,0,2) <= -0
MCLin8(2,0,2):  68 y(0,2,2) + v(2,0,2) - u(2,0,2) <= 68
MCLin9(2,0,2):  68 y(0,2,2) - u(2,0,2) >= -0
MCLin10(2,0,2):  -76 y(0,2,2) + v(2,0,2) - u(2,0,2) >= -76
MCLinV(0,2,3):  x(0,3) - v(0,2,3) - x(2,3) = 4
MCLinV(2,0,3):  - x(0,3) - v(2,0,3) + x(2,3) = 1
MCLin1(0,2,3):  u(0,2,3) >= -0
MCLin2(0,2,3):  -61 y(2,0,3) - u(0,2,3) <= -0
MCLin3(0,2,3):  83 y(2,0,3) + v(0,2,3) - u(0,2,3) <= 83
MCLin4(0,2,3):  83 y(2,0,3) - u(0,2,3) >= -0
MCLin5(0,2,3):  -61 y(2,0,3) + v(0,2,3) - u(0,2,3) >= -61
MCLin6(2,0,3):  u(2,0,3) >= -0
MCLin7(2,0,3):  -88 y(0,2,3) - u(2,0,3) <= -0
MCLin8(2,0,3):  56 y(0,2,3) + v(2,0,3) - u(2,0,3) <= 56
MCLin9(2,0,3):  56 y(0,2,3) - u(2,0,3) >= -0
MCLin10(2,0,3):  -88 y(0,2,3) + v(2,0,3) - u(2,0,3) >= -88
MCLinV(0,2,4):  x(0,4) - v(0,2,4) - x(2,4) = 2
MCLinV(2,0,4):  - x(0,4) - v(2,0,4) + x(2,4) = 10
MCLin1(0,2,4):  u(0,2,4) >= -0
MCLin2(0,2,4):  -82 y(2,0,4) - u(0,2,4) <= -0
MCLin3(0,2,4):  62 y(2,0,4) + v(0,2,4) - u(0,2,4) <= 62
MCLin4(0,2,4):  62 y(2,0,4) - u(0,2,4) >= -0
MCLin5(0,2,4):  -82 y(2,0,4) + v(0,2,4) - u(0,2,4) >= -82
MCLin6(2,0,4):  u(2,0,4) >= -0
MCLin7(2,0,4):  -74 y(0,2,4) - u(2,0,4) <= -0
MCLin8(2,0,4):  70 y(0,2,4) + v(2,0,4) - u(2,0,4) <= 70
MCLin9(2,0,4):  70 y(0,2,4) - u(2,0,4) >= -0
MCLin10(2,0,4):  -74 y(0,2,4) + v(2,0,4) - u(2,0,4) >= -74
MCLinV(0,3,0):  x(0,0) - v(0,3,0) - x(3,0) = 6
MCLinV(3,0,0):  - x(0,0) - v(3,0,0) + x(3,0) = 6
MCLin1(0,3,0):  u(0,3,0) >= -0
MCLin2(0,3,0):  -61 y(3,0,0) - u(0,3,0) <= -0
MCLin3(0,3,0):  81 y(3,0,0) + v(0,3,0) - u(0,3,0) <= 81
MCLin4(0,3,0):  81 y(3,0,0) - u(0,3,0) >= -0
MCLin5(0,3,0):  -61 y(3,0,0) + v(0,3,0) - u(0,3,0) >= -61
MCLin6(3,0,0):  u(3,0,0) >= -0
MCLin7(3,0,0):  -93 y(0,3,0) - u(3,0,0) <= -0
MCLin8(3,0,0):  49 y(0,3,0) + v(3,0,0) - u(3,0,0) <= 49
MCLin9(3,0,0):  49 y(0,3,0) - u(3,0,0) >= -0
MCLin10(3,0,0):  -93 y(0,3,0) + v(3,0,0) - u(3,0,0) >= -93
MCLinV(0,3,1):  x(0,1) - v(0,3,1) - x(3,1) = 4
MCLinV(3,0,1):  - x(0,1) - v(3,0,1) + x(3,1) = 4
MCLin1(0,3,1):  u(0,3,1) >= -0
MCLin2(0,3,1):  -84 y(3,0,1) - u(0,3,1) <= -0
MCLin3(0,3,1):  58 y(3,0,1) + v(0,3,1) - u(0,3,1) <= 58
MCLin4(0,3,1):  58 y(3,0,1) - u(0,3,1) >= -0
MCLin5(0,3,1):  -84 y(3,0,1) + v(0,3,1) - u(0,3,1) >= -84
MCLin6(3,0,1):  u(3,0,1) >= -0
MCLin7(3,0,1):  -66 y(0,3,1) - u(3,0,1) <= -0
MCLin8(3,0,1):  76 y(0,3,1) + v(3,0,1) - u(3,0,1) <= 76
MCLin9(3,0,1):  76 y(0,3,1) - u(3,0,1) >= -0
MCLin10(3,0,1):  -66 y(0,3,1) + v(3,0,1) - u(3,0,1) >= -66
MCLinV(0,3,2):  x(0,2) - v(0,3,2) - x(3,2) = 1
MCLinV(3,0,2):  - x(0,2) - v(3,0,2) + x(3,2) = 4
MCLin1(0,3,2):  u(0,3,2) >= -0
MCLin2(0,3,2):  -60 y(3,0,2) - u(0,3,2) <= -0
MCLin3(0,3,2):  82 y(3,0,2) + v(0,3,2) - u(0,3,2) <= 82
MCLin4(0,3,2):  82 y(3,0,2) - u(0,3,2) >= -0
MCLin5(0,3,2):  -60 y(3,0,2) + v(0,3,2) - u(0,3,2) >= -60
MCLin6(3,0,2):  u(3,0,2) >= -0
MCLin7(3,0,2):  -87 y(0,3,2) - u(3,0,2) <= -0
MCLin8(3,0,2):  55 y(0,3,2) + v(3,0,2) - u(3,0,2) <= 55
MCLin9(3,0,2):  55 y(0,3,2) - u(3,0,2) >= -0
MCLin10(3,0,2):  -87 y(0,3,2) + v(3,0,2) - u(3,0,2) >= -87
MCLinV(0,3,3):  x(0,3) - v(0,3,3) - x(3,3) = 1
MCLinV(3,0,3):  - x(0,3) - v(3,0,3) + x(3,3) = 1
MCLin1(0,3,3):  u(0,3,3) >= -0
MCLin2(0,3,3):  -67 y(3,0,3) - u(0,3,3) <= -0
MCLin3(0,3,3):  75 y(3,0,3) + v(0,3,3) - u(0,3,3) <= 75
MCLin4(0,3,3):  75 y(3,0,3) - u(0,3,3) >= -0
MCLin5(0,3,3):  -67 y(3,0,3) + v(0,3,3) - u(0,3,3) >= -67
MCLin6(3,0,3):  u(3,0,3) >= -0
MCLin7(3,0,3):  -77 y(0,3,3) - u(3,0,3) <= -0
MCLin8(3,0,3):  65 y(0,3,3) + v(3,0,3) - u(3,0,3) <= 65
MCLin9(3,0,3):  65 y(0,3,3) - u(3,0,3) >= -0
MCLin10(3,0,3):  -77 y(0,3,3) + v(3,0,3) - u(3,0,3) >= -77
MCLinV(0,3,4):  x(0,4) - v(0,3,4) - x(3,4) = 9
MCLinV(3,0,4):  - x(0,4) - v(3,0,4) + x(3,4) = 10
MCLin1(0,3,4):  u(0,3,4) >= -0
MCLin2(0,3,4):  -90 y(3,0,4) - u(0,3,4) <= -0
MCLin3(0,3,4):  52 y(3,0,4) + v(0,3,4) - u(0,3,4) <= 52
MCLin4(0,3,4):  52 y(3,0,4) - u(0,3,4) >= -0
MCLin5(0,3,4):  -90 y(3,0,4) + v(0,3,4) - u(0,3,4) >= -90
MCLin6(3,0,4):  u(3,0,4) >= -0
MCLin7(3,0,4):  -71 y(0,3,4) - u(3,0,4) <= -0
MCLin8(3,0,4):  71 y(0,3,4) + v(3,0,4) - u(3,0,4) <= 71
MCLin9(3,0,4):  71 y(0,3,4) - u(3,0,4) >= -0
MCLin10(3,0,4):  -71 y(0,3,4) + v(3,0,4) - u(3,0,4) >= -71
MCLinV(1,2,0):  x(1,0) - v(1,2,0) - x(2,0) = 3
MCLinV(2,1,0):  - x(1,0) - v(2,1,0) + x(2,0) = 2
MCLin1(1,2,0):  u(1,2,0) >= -0
MCLin2(1,2,0):  -72 y(2,1,0) - u(1,2,0) <= -0
MCLin3(1,2,0):  68 y(2,1,0) + v(1,2,0) - u(1,2,0) <= 68
MCLin4(1,2,0):  68 y(2,1,0) - u(1,2,0) >= -0
MCLin5(1,2,0):  -72 y(2,1,0) + v(1,2,0) - u(1,2,0) >= -72
MCLin6(2,1,0):  u(2,1,0) >= -0
MCLin7(2,1,0):  -73 y(1,2,0) - u(2,1,0) <= -0
MCLin8(2,1,0):  67 y(1,2,0) + v(2,1,0) - u(2,1,0) <= 67
MCLin9(2,1,0):  67 y(1,2,0) - u(2,1,0) >= -0
MCLin10(2,1,0):  -73 y(1,2,0) + v(2,1,0) - u(2,1,0) >= -73
MCLinV(1,2,1):  x(1,1) - v(1,2,1) - x(2,1) = 2
MCLinV(2,1,1):  - x(1,1) - v(2,1,1) + x(2,1) = 2
MCLin1(1,2,1):  u(1,2,1) >= -0
MCLin2(1,2,1):  -84 y(2,1,1) - u(1,2,1) <= -0
MCLin3(1,2,1):  56 y(2,1,1) + v(1,2,1) - u(1,2,1) <= 56
MCLin4(1,2,1):  56 y(2,1,1) - u(1,2,1) >= -0
MCLin5(1,2,1):  -84 y(2,1,1) + v(1,2,1) - u(1,2,1) >= -84
MCLin6(2,1,1):  u(2,1,1) >= -0
MCLin7(2,1,1):  -60 y(1,2,1) - u(2,1,1) <= -0
MCLin8(2,1,1):  80 y(1,2,1) + v(2,1,1) - u(2,1,1) <= 80
MCLin9(2,1,1):  80 y(1,2,1) - u(2,1,1) >= -0
MCLin10(2,1,1):  -60 y(1,2,1) + v(2,1,1) - u(2,1,1) >= -60
MCLinV(1,2,2):  x(1,2) - v(1,2,2) - x(2,2) = 8
MCLinV(2,1,2):  - x(1,2) - v(2,1,2) + x(2,2) = 7
MCLin1(1,2,2):  u(1,2,2) >= -0
MCLin2(1,2,2):  -72 y(2,1,2) - u(1,2,2) <= -0
MCLin3(1,2,2):  68 y(2,1,2) + v(1,2,2) - u(1,2,2) <= 68
MCLin4(1,2,2):  68 y(2,1,2) - u(1,2,2) >= -0
MCLin5(1,2,2):  -72 y(2,1,2) + v(1,2,2) - u(1,2,2) >= -72
MCLin6(2,1,2):  u(2,1,2) >= -0
MCLin7(2,1,2):  -83 y(1,2,2) - u(2,1,2) <= -0
MCLin8(2,1,2):  57 y(1,2,2) + v(2,1,2) - u(2,1,2) <= 57
MCLin9(2,1,2):  57 y(1,2,2) - u(2,1,2) >= -0
MCLin10(2,1,2):  -83 y(1,2,2) + v(2,1,2) - u(2,1,2) >= -83
MCLinV(1,2,3):  x(1,3) - v(1,2,3) - x(2,3) = 4
MCLinV(2,1,3):  - x(1,3) - v(2,1,3) + x(2,3) = 10
MCLin1(1,2,3):  u(1,2,3) >= -0
MCLin2(1,2,3):  -67 y(2,1,3) - u(1,2,3) <= -0
MCLin3(1,2,3):  73 y(2,1,3) + v(1,2,3) - u(1,2,3) <= 73
MCLin4(1,2,3):  73 y(2,1,3) - u(1,2,3) >= -0
MCLin5(1,2,3):  -67 y(2,1,3) + v(1,2,3) - u(1,2,3) >= -67
MCLin6(2,1,3):  u(2,1,3) >= -0
MCLin7(2,1,3):  -87 y(1,2,3) - u(2,1,3) <= -0
MCLin8(2,1,3):  53 y(1,2,3) + v(2,1,3) - u(2,1,3) <= 53
MCLin9(2,1,3):  53 y(1,2,3) - u(2,1,3) >= -0
MCLin10(2,1,3):  -87 y(1,2,3) + v(2,1,3) - u(2,1,3) >= -87
MCLinV(1,2,4):  x(1,4) - v(1,2,4) - x(2,4) = 2
MCLinV(2,1,4):  - x(1,4) - v(2,1,4) + x(2,4) = 8
MCLin1(1,2,4):  u(1,2,4) >= -0
MCLin2(1,2,4):  -84 y(2,1,4) - u(1,2,4) <= -0
MCLin3(1,2,4):  56 y(2,1,4) + v(1,2,4) - u(1,2,4) <= 56
MCLin4(1,2,4):  56 y(2,1,4) - u(1,2,4) >= -0
MCLin5(1,2,4):  -84 y(2,1,4) + v(1,2,4) - u(1,2,4) >= -84
MCLin6(2,1,4):  u(2,1,4) >= -0
MCLin7(2,1,4):  -66 y(1,2,4) - u(2,1,4) <= -0
MCLin8(2,1,4):  74 y(1,2,4) + v(2,1,4) - u(2,1,4) <= 74
MCLin9(2,1,4):  74 y(1,2,4) - u(2,1,4) >= -0
MCLin10(2,1,4):  -66 y(1,2,4) + v(2,1,4) - u(2,1,4) >= -66
MCLinV(1,3,0):  x(1,0) - v(1,3,0) - x(3,0) = 6
MCLinV(3,1,0):  - x(1,0) - v(3,1,0) + x(3,0) = 2
MCLin1(1,3,0):  u(1,3,0) >= -0
MCLin2(1,3,0):  -70 y(3,1,0) - u(1,3,0) <= -0
MCLin3(1,3,0):  68 y(3,1,0) + v(1,3,0) - u(1,3,0) <= 68
MCLin4(1,3,0):  68 y(3,1,0) - u(1,3,0) >= -0
MCLin5(1,3,0):  -70 y(3,1,0) + v(1,3,0) - u(1,3,0) >= -70
MCLin6(3,1,0):  u(3,1,0) >= -0
MCLin7(3,1,0):  -76 y(1,3,0) - u(3,1,0) <= -0
MCLin8(3,1,0):  62 y(1,3,0) + v(3,1,0) - u(3,1,0) <= 62
MCLin9(3,1,0):  62 y(1,3,0) - u(3,1,0) >= -0
MCLin10(3,1,0):  -76 y(1,3,0) + v(3,1,0) - u(3,1,0) >= -76
MCLinV(1,3,1):  x(1,1) - v(1,3,1) - x(3,1) = 4
MCLinV(3,1,1):  - x(1,1) - v(3,1,1) + x(3,1) = 2
MCLin1(1,3,1):  u(1,3,1) >= -0
MCLin2(1,3,1):  -84 y(3,1,1) - u(1,3,1) <= -0
MCLin3(1,3,1):  54 y(3,1,1) + v(1,3,1) - u(1,3,1) <= 54
MCLin4(1,3,1):  54 y(3,1,1) - u(1,3,1) >= -0
MCLin5(1,3,1):  -84 y(3,1,1) + v(1,3,1) - u(1,3,1) >= -84
MCLin6(3,1,1):  u(3,1,1) >= -0
MCLin7(3,1,1):  -60 y(1,3,1) - u(3,1,1) <= -0
MCLin8(3,1,1):  78 y(1,3,1) + v(3,1,1) - u(3,1,1) <= 78
MCLin9(3,1,1):  78 y(1,3,1) - u(3,1,1) >= -0
MCLin10(3,1,1):  -60 y(1,3,1) + v(3,1,1) - u(3,1,1) >= -60
MCLinV(1,3,2):  x(1,2) - v(1,3,2) - x(3,2) = 1
MCLinV(3,1,2):  - x(1,2) - v(3,1,2) + x(3,2) = 7
MCLin1(1,3,2):  u(1,3,2) >= -0
MCLin2(1,3,2):  -52 y(3,1,2) - u(1,3,2) <= -0
MCLin3(1,3,2):  86 y(3,1,2) + v(1,3,2) - u(1,3,2) <= 86
MCLin4(1,3,2):  86 y(3,1,2) - u(1,3,2) >= -0
MCLin5(1,3,2):  -52 y(3,1,2) + v(1,3,2) - u(1,3,2) >= -52
MCLin6(3,1,2):  u(3,1,2) >= -0
MCLin7(3,1,2):  -94 y(1,3,2) - u(3,1,2) <= -0
MCLin8(3,1,2):  44 y(1,3,2) + v(3,1,2) - u(3,1,2) <= 44
MCLin9(3,1,2):  44 y(1,3,2) - u(3,1,2) >= -0
MCLin10(3,1,2):  -94 y(1,3,2) + v(3,1,2) - u(3,1,2) >= -94
MCLinV(1,3,3):  x(1,3) - v(1,3,3) - x(3,3) = 1
MCLinV(3,1,3):  - x(1,3) - v(3,1,3) + x(3,3) = 10
MCLin1(1,3,3):  u(1,3,3) >= -0
MCLin2(1,3,3):  -73 y(3,1,3) - u(1,3,3) <= -0
MCLin3(1,3,3):  65 y(3,1,3) + v(1,3,3) - u(1,3,3) <= 65
MCLin4(1,3,3):  65 y(3,1,3) - u(1,3,3) >= -0
MCLin5(1,3,3):  -73 y(3,1,3) + v(1,3,3) - u(1,3,3) >= -73
MCLin6(3,1,3):  u(3,1,3) >= -0
MCLin7(3,1,3):  -76 y(1,3,3) - u(3,1,3) <= -0
MCLin8(3,1,3):  62 y(1,3,3) + v(3,1,3) - u(3,1,3) <= 62
MCLin9(3,1,3):  62 y(1,3,3) - u(3,1,3) >= -0
MCLin10(3,1,3):  -76 y(1,3,3) + v(3,1,3) - u(3,1,3) >= -76
MCLinV(1,3,4):  x(1,4) - v(1,3,4) - x(3,4) = 9
MCLinV(3,1,4):  - x(1,4) - v(3,1,4) + x(3,4) = 8
MCLin1(1,3,4):  u(1,3,4) >= -0
MCLin2(1,3,4):  -92 y(3,1,4) - u(1,3,4) <= -0
MCLin3(1,3,4):  46 y(3,1,4) + v(1,3,4) - u(1,3,4) <= 46
MCLin4(1,3,4):  46 y(3,1,4) - u(1,3,4) >= -0
MCLin5(1,3,4):  -92 y(3,1,4) + v(1,3,4) - u(1,3,4) >= -92
MCLin6(3,1,4):  u(3,1,4) >= -0
MCLin7(3,1,4):  -63 y(1,3,4) - u(3,1,4) <= -0
MCLin8(3,1,4):  75 y(1,3,4) + v(3,1,4) - u(3,1,4) <= 75
MCLin9(3,1,4):  75 y(1,3,4) - u(3,1,4) >= -0
MCLin10(3,1,4):  -63 y(1,3,4) + v(3,1,4) - u(3,1,4) >= -63
MCLinV(2,3,0):  x(2,0) - v(2,3,0) - x(3,0) = 6
MCLinV(3,2,0):  - x(2,0) - v(3,2,0) + x(3,0) = 3
MCLin1(2,3,0):  u(2,3,0) >= -0
MCLin2(2,3,0):  -76 y(3,2,0) - u(2,3,0) <= -0
MCLin3(2,3,0):  72 y(3,2,0) + v(2,3,0) - u(2,3,0) <= 72
MCLin4(2,3,0):  72 y(3,2,0) - u(2,3,0) >= -0
MCLin5(2,3,0):  -76 y(3,2,0) + v(2,3,0) - u(2,3,0) >= -76
MCLin6(3,2,0):  u(3,2,0) >= -0
MCLin7(3,2,0):  -81 y(2,3,0) - u(3,2,0) <= -0
MCLin8(3,2,0):  67 y(2,3,0) + v(3,2,0) - u(3,2,0) <= 67
MCLin9(3,2,0):  67 y(2,3,0) - u(3,2,0) >= -0
MCLin10(3,2,0):  -81 y(2,3,0) + v(3,2,0) - u(3,2,0) >= -81
MCLinV(2,3,1):  x(2,1) - v(2,3,1) - x(3,1) = 4
MCLinV(3,2,1):  - x(2,1) - v(3,2,1) + x(3,1) = 2
MCLin1(2,3,1):  u(2,3,1) >= -0
MCLin2(2,3,1):  -77 y(3,2,1) - u(2,3,1) <= -0
MCLin3(2,3,1):  71 y(3,2,1) + v(2,3,1) - u(2,3,1) <= 71
MCLin4(2,3,1):  71 y(3,2,1) - u(2,3,1) >= -0
MCLin5(2,3,1):  -77 y(3,2,1) + v(2,3,1) - u(2,3,1) >= -77
MCLin6(3,2,1):  u(3,2,1) >= -0
MCLin7(3,2,1):  -77 y(2,3,1) - u(3,2,1) <= -0
MCLin8(3,2,1):  71 y(2,3,1) + v(3,2,1) - u(3,2,1) <= 71
MCLin9(3,2,1):  71 y(2,3,1) - u(3,2,1) >= -0
MCLin10(3,2,1):  -77 y(2,3,1) + v(3,2,1) - u(3,2,1) >= -77
MCLinV(2,3,2):  x(2,2) - v(2,3,2) - x(3,2) = 1
MCLinV(3,2,2):  - x(2,2) - v(3,2,2) + x(3,2) = 8
MCLin1(2,3,2):  u(2,3,2) >= -0
MCLin2(2,3,2):  -63 y(3,2,2) - u(2,3,2) <= -0
MCLin3(2,3,2):  85 y(3,2,2) + v(2,3,2) - u(2,3,2) <= 85
MCLin4(2,3,2):  85 y(3,2,2) - u(2,3,2) >= -0
MCLin5(2,3,2):  -63 y(3,2,2) + v(2,3,2) - u(2,3,2) >= -63
MCLin6(3,2,2):  u(3,2,2) >= -0
MCLin7(3,2,2):  -94 y(2,3,2) - u(3,2,2) <= -0
MCLin8(3,2,2):  54 y(2,3,2) + v(3,2,2) - u(3,2,2) <= 54
MCLin9(3,2,2):  54 y(2,3,2) - u(3,2,2) >= -0
MCLin10(3,2,2):  -94 y(2,3,2) + v(3,2,2) - u(3,2,2) >= -94
MCLinV(2,3,3):  x(2,3) - v(2,3,3) - x(3,3) = 1
MCLinV(3,2,3):  - x(2,3) - v(3,2,3) + x(3,3) = 4
MCLin1(2,3,3):  u(2,3,3) >= -0
MCLin2(2,3,3):  -85 y(3,2,3) - u(2,3,3) <= -0
MCLin3(2,3,3):  63 y(3,2,3) + v(2,3,3) - u(2,3,3) <= 63
MCLin4(2,3,3):  63 y(3,2,3) - u(2,3,3) >= -0
MCLin5(2,3,3):  -85 y(3,2,3) + v(2,3,3) - u(2,3,3) >= -85
MCLin6(3,2,3):  u(3,2,3) >= -0
MCLin7(3,2,3):  -68 y(2,3,3) - u(3,2,3) <= -0
MCLin8(3,2,3):  80 y(2,3,3) + v(3,2,3) - u(3,2,3) <= 80
MCLin9(3,2,3):  80 y(2,3,3) - u(3,2,3) >= -0
MCLin10(3,2,3):  -68 y(2,3,3) + v(3,2,3) - u(3,2,3) >= -68
MCLinV(2,3,4):  x(2,4) - v(2,3,4) - x(3,4) = 9
MCLinV(3,2,4):  - x(2,4) - v(3,2,4) + x(3,4) = 2
MCLin1(2,3,4):  u(2,3,4) >= -0
MCLin2(2,3,4):  -85 y(3,2,4) - u(2,3,4) <= -0
MCLin3(2,3,4):  63 y(3,2,4) + v(2,3,4) - u(2,3,4) <= 63
MCLin4(2,3,4):  63 y(3,2,4) - u(2,3,4) >= -0
MCLin5(2,3,4):  -85 y(3,2,4) + v(2,3,4) - u(2,3,4) >= -85
MCLin6(3,2,4):  u(3,2,4) >= -0
MCLin7(3,2,4):  -74 y(2,3,4) - u(3,2,4) <= -0
MCLin8(3,2,4):  74 y(2,3,4) + v(3,2,4) - u(3,2,4) <= 74
MCLin9(3,2,4):  74 y(2,3,4) - u(3,2,4) >= -0
MCLin10(3,2,4):  -74 y(2,3,4) + v(3,2,4) - u(3,2,4) >= -74
makespan(0):  C - x(0,0) >= 6
makespan(1):  C - x(1,2) >= 7
makespan(2):  C - x(2,2) >= 8
makespan(3):  C - x(3,4) >= 9
cut_clique_0(0123,1):  0.50000 x(0,1) + 0.25000 x(1,1) >= 1
cut_clique_0(013,1):  0.50000 x(0,1) + 0.25000 x(1,1) >= 1
cut_clique_0(012,1):  0.50000 x(0,1) + 0.25000 x(1,1) >= 1
cut_clique_0(023,1):  0.04000 x(2,1) + 0.08000 x(3,1) >= 1
cut_clique_0(123,1):  0.04000 x(2,1) + 0.08000 x(3,1) >= 1
cut_clique_0(0123,2):  0.00387 x(0,2) + 0.03873 x(1,2) + 0.00323 x(2,2) >= 1
cut_clique_0(012,2):  0.00387 x(0,2) + 0.03873 x(1,2) + 0.00323 x(2,2) >= 1
cut_clique_0(0123,4):  0.02866 x(0,4) + 0.01570 x(1,4) + 0.00573 x(2,4) + 0.02579 x(3,4) >= 1
cut_clique_0(023,4):  0.01480 x(0,4) + 0.01094 x(2,4) + 0.04923 x(3,4) >= 1
cut_clique_0(012,4):  0.06654 x(0,4) + 0.03422 x(1,4) + 0.01331 x(2,4) >= 1
cut_clique_0(013,4):  0.02574 x(0,4) + 0.01746 x(1,4) + 0.03539 x(3,4) >= 1
cut_clique_1(0123,4):  0.04364 x(0,4) + 0.01775 x(1,4) + 0.00444 x(2,4) + 0.01997 x(3,4) >= 1
cut_clique_0:  0.11842 x(0,1) + 0.06579 x(0,4) + 0.05263 x(1,4) >= 1
cut_clique_1:  0.00244 x(1,2) + 0.00163 x(2,2) + 0.03595 x(0,4) + 0.01624 x(1,4) + 0.00426 x(2,4) + 0.01918 x(3,4) >= 1
Bounds
 0 <= C <= 94
 19 <= x(0,0) <= 88
 0 <= y(0,1,0) <= 1
 0 <= y(1,0,0) <= 1
 -58 <= v(0,1,0) <= 76
 -84 <= v(1,0,0) <= 50
 -940 <= u(0,1,0)
 -940 <= u(1,0,0)
 0 <= y(0,2,0) <= 1
 0 <= y(2,0,0) <= 1
 -63 <= v(0,2,0) <= 81
 -90 <= v(2,0,0) <= 54
 -940 <= u(0,2,0)
 -940 <= u(2,0,0)
 0 <= y(0,3,0) <= 1
 0 <= y(3,0,0) <= 1
 -61 <= v(0,3,0) <= 81
 -93 <= v(3,0,0) <= 49
 -940 <= u(0,3,0)
 -940 <= u(3,0,0)
 10 <= x(1,0) <= 75
 0 <= y(1,2,0) <= 1
 0 <= y(2,1,0) <= 1
 -72 <= v(1,2,0) <= 68
 -73 <= v(2,1,0) <= 67
 -940 <= u(1,2,0)
 -940 <= u(2,1,0)
 0 <= y(1,3,0) <= 1
 0 <= y(3,1,0) <= 1
 -70 <= v(1,3,0) <= 68
 -76 <= v(3,1,0) <= 62
 -940 <= u(1,3,0)
 -940 <= u(3,1,0)
 4 <= x(2,0) <= 79
 0 <= y(2,3,0) <= 1
 0 <= y(3,2,0) <= 1
 -76 <= v(2,3,0) <= 72
 -81 <= v(3,2,0) <= 67
 -940 <= u(2,3,0)
 -940 <= u(3,2,0)
 1 <= x(3,0) <= 74
 0 <= x(0,1) <= 69
 0 <= y(0,1,1) <= 1
 0 <= y(1,0,1) <= 1
 -67 <= v(0,1,1) <= 67
 -73 <= v(1,0,1) <= 61
 -940 <= u(0,1,1)
 -940 <= u(1,0,1)
 0 <= y(0,2,1) <= 1
 0 <= y(2,0,1) <= 1
 -84 <= v(0,2,1) <= 60
 -66 <= v(2,0,1) <= 78
 -940 <= u(0,2,1)
 -940 <= u(2,0,1)
 0 <= y(0,3,1) <= 1
 0 <= y(3,0,1) <= 1
 -84 <= v(0,3,1) <= 58
 -66 <= v(3,0,1) <= 76
 -940 <= u(0,3,1)
 -940 <= u(3,0,1)
 0 <= x(1,1) <= 65
 0 <= y(1,2,1) <= 1
 0 <= y(2,1,1) <= 1
 -84 <= v(1,2,1) <= 56
 -60 <= v(2,1,1) <= 80
 -940 <= u(1,2,1)
 -940 <= u(2,1,1)
 0 <= y(1,3,1) <= 1
 0 <= y(3,1,1) <= 1
 -84 <= v(1,3,1) <= 54
 -60 <= v(3,1,1) <= 78
 -940 <= u(1,3,1)
 -940 <= u(3,1,1)
 7 <= x(2,1) <= 82
 0 <= y(2,3,1) <= 1
 0 <= y(3,2,1) <= 1
 -77 <= v(2,3,1) <= 71
 -77 <= v(3,2,1) <= 71
 -940 <= u(2,3,1)
 -940 <= u(3,2,1)
 7 <= x(3,1) <= 80
 14 <= x(0,2) <= 83
 0 <= y(0,1,2) <= 1
 0 <= y(1,0,2) <= 1
 -80 <= v(0,1,2) <= 54
 -65 <= v(1,0,2) <= 69
 -940 <= u(0,1,2)
 -940 <= u(1,0,2)
 0 <= y(0,2,2) <= 1
 0 <= y(2,0,2) <= 1
 -80 <= v(0,2,2) <= 64
 -76 <= v(2,0,2) <= 68
 -940 <= u(0,2,2)
 -940 <= u(2,0,2)
 0 <= y(0,3,2) <= 1
 0 <= y(3,0,2) <= 1
 -60 <= v(0,3,2) <= 82
 -87 <= v(3,0,2) <= 55
 -940 <= u(0,3,2)
 -940 <= u(3,0,2)
 22 <= x(1,2) <= 87
 0 <= y(1,2,2) <= 1
 0 <= y(2,1,2) <= 1
 -72 <= v(1,2,2) <= 68
 -83 <= v(2,1,2) <= 57
 -940 <= u(1,2,2)
 -940 <= u(2,1,2)
 0 <= y(1,3,2) <= 1
 0 <= y(3,1,2) <= 1
 -52 <= v(1,3,2) <= 86
 -94 <= v(3,1,2) <= 44
 -940 <= u(1,3,2)
 -940 <= u(3,1,2)
 11 <= x(2,2) <= 86
 0 <= y(2,3,2) <= 1
 0 <= y(3,2,2) <= 1
 -63 <= v(2,3,2) <= 85
 -94 <= v(3,2,2) <= 54
 -940 <= u(2,3,2)
 -940 <= u(3,2,2)
 0 <= x(3,2) <= 73
 18 <= x(0,3) <= 87
 0 <= y(0,1,3) <= 1
 0 <= y(1,0,3) <= 1
 -69 <= v(0,1,3) <= 65
 -76 <= v(1,0,3) <= 58
 -940 <= u(0,1,3)
 -940 <= u(1,0,3)
 0 <= y(0,2,3) <= 1
 0 <= y(2,0,3) <= 1
 -61 <= v(0,2,3) <= 83
 -88 <= v(2,0,3) <= 56
 -940 <= u(0,2,3)
 -940 <= u(2,0,3)
 0 <= y(0,3,3) <= 1
 0 <= y(3,0,3) <= 1
 -67 <= v(0,3,3) <= 75
 -77 <= v(3,0,3) <= 65
 -940 <= u(0,3,3)
 -940 <= u(3,0,3)
 12 <= x(1,3) <= 77
 0 <= y(1,2,3) <= 1
 0 <= y(2,1,3) <= 1
 -67 <= v(1,2,3) <= 73
 -87 <= v(2,1,3) <= 53
 -940 <= u(1,2,3)
 -940 <= u(2,1,3)
 0 <= y(1,3,3) <= 1
 0 <= y(3,1,3) <= 1
 -73 <= v(1,3,3) <= 65
 -76 <= v(3,1,3) <= 62
 -940 <= u(1,3,3)
 -940 <= u(3,1,3)
 0 <= x(2,3) <= 75
 0 <= y(2,3,3) <= 1
 0 <= y(3,2,3) <= 1
 -85 <= v(2,3,3) <= 63
 -68 <= v(3,2,3) <= 80
 -940 <= u(2,3,3)
 -940 <= u(3,2,3)
 11 <= x(3,3) <= 84
 4 <= x(0,4) <= 73
 0 <= y(0,1,4) <= 1
 0 <= y(1,0,4) <= 1
 -71 <= v(0,1,4) <= 63
 -81 <= v(1,0,4) <= 53
 -940 <= u(0,1,4)
 -940 <= u(1,0,4)
 0 <= y(0,2,4) <= 1
 0 <= y(2,0,4) <= 1
 -82 <= v(0,2,4) <= 62
 -74 <= v(2,0,4) <= 70
 -940 <= u(0,2,4)
 -940 <= u(2,0,4)
 0 <= y(0,3,4) <= 1
 0 <= y(3,0,4) <= 1
 -90 <= v(0,3,4) <= 52
 -71 <= v(3,0,4) <= 71
 -940 <= u(0,3,4)
 -940 <= u(3,0,4)
 2 <= x(1,4) <= 67
 0 <= y(1,2,4) <= 1
 0 <= y(2,1,4) <= 1
 -84 <= v(1,2,4) <= 56
 -66 <= v(2,1,4) <= 74
 -940 <= u(1,2,4)
 -940 <= u(2,1,4)
 0 <= y(1,3,4) <= 1
 0 <= y(3,1,4) <= 1
 -92 <= v(1,3,4) <= 46
 -63 <= v(3,1,4) <= 75
 -940 <= u(1,3,4)
 -940 <= u(3,1,4)
 9 <= x(2,4) <= 84
 0 <= y(2,3,4) <= 1
 0 <= y(3,2,4) <= 1
 -85 <= v(2,3,4) <= 63
 -74 <= v(3,2,4) <= 74
 -940 <= u(2,3,4)
 -940 <= u(3,2,4)
 12 <= x(3,4) <= 85
Integers
C x(0,0) y(0,1,0) y(1,0,0) v(0,1,0) v(1,0,0) u(0,1,0) u(1,0,0) y(0,2,0) y(2,0,0) 
v(0,2,0) v(2,0,0) u(0,2,0) u(2,0,0) y(0,3,0) y(3,0,0) v(0,3,0) v(3,0,0) u(0,3,0) u(3,0,0) 
x(1,0) y(1,2,0) y(2,1,0) v(1,2,0) v(2,1,0) u(1,2,0) u(2,1,0) y(1,3,0) y(3,1,0) v(1,3,0) 
v(3,1,0) u(1,3,0) u(3,1,0) x(2,0) y(2,3,0) y(3,2,0) v(2,3,0) v(3,2,0) u(2,3,0) u(3,2,0) 
x(3,0) x(0,1) y(0,1,1) y(1,0,1) v(0,1,1) v(1,0,1) u(0,1,1) u(1,0,1) y(0,2,1) y(2,0,1) 
v(0,2,1) v(2,0,1) u(0,2,1) u(2,0,1) y(0,3,1) y(3,0,1) v(0,3,1) v(3,0,1) u(0,3,1) u(3,0,1) 
x(1,1) y(1,2,1) y(2,1,1) v(1,2,1) v(2,1,1) u(1,2,1) u(2,1,1) y(1,3,1) y(3,1,1) v(1,3,1) 
v(3,1,1) u(1,3,1) u(3,1,1) x(2,1) y(2,3,1) y(3,2,1) v(2,3,1) v(3,2,1) u(2,3,1) u(3,2,1) 
x(3,1) x(0,2) y(0,1,2) y(1,0,2) v(0,1,2) v(1,0,2) u(0,1,2) u(1,0,2) y(0,2,2) y(2,0,2) 
v(0,2,2) v(2,0,2) u(0,2,2) u(2,0,2) y(0,3,2) y(3,0,2) v(0,3,2) v(3,0,2) u(0,3,2) u(3,0,2) 
x(1,2) y(1,2,2) y(2,1,2) v(1,2,2) v(2,1,2) u(1,2,2) u(2,1,2) y(1,3,2) y(3,1,2) v(1,3,2) 
v(3,1,2) u(1,3,2) u(3,1,2) x(2,2) y(2,3,2) y(3,2,2) v(2,3,2) v(3,2,2) u(2,3,2) u(3,2,2) 
x(3,2) x(0,3) y(0,1,3) y(1,0,3) v(0,1,3) v(1,0,3) u(0,1,3) u(1,0,3) y(0,2,3) y(2,0,3) 
v(0,2,3) v(2,0,3) u(0,2,3) u(2,0,3) y(0,3,3) y(3,0,3) v(0,3,3) v(3,0,3) u(0,3,3) u(3,0,3) 
x(1,3) y(1,2,3) y(2,1,3) v(1,2,3) v(2,1,3) u(1,2,3) u(2,1,3) y(1,3,3) y(3,1,3) v(1,3,3) 
v(3,1,3) u(1,3,3) u(3,1,3) x(2,3) y(2,3,3) y(3,2,3) v(2,3,3) v(3,2,3) u(2,3,3) u(3,2,3) 
x(3,3) x(0,4) y(0,1,4) y(1,0,4) v(0,1,4) v(1,0,4) u(0,1,4) u(1,0,4) y(0,2,4) y(2,0,4) 
v(0,2,4) v(2,0,4) u(0,2,4) u(2,0,4) y(0,3,4) y(3,0,4) v(0,3,4) v(3,0,4) u(0,3,4) u(3,0,4) 
x(1,4) y(1,2,4) y(2,1,4) v(1,2,4) v(2,1,4) u(1,2,4) u(2,1,4) y(1,3,4) y(3,1,4) v(1,3,4) 
v(3,1,4) u(1,3,4) u(3,1,4) x(2,4) y(2,3,4) y(3,2,4) v(2,3,4) v(3,2,4) u(2,3,4) u(3,2,4) 
x(3,4) 
End
